c --- [ banner ] -------------------------------------------------------------
c 
c CaDiCaL Radically Simplified CDCL SAT Solver
c Copyright (c) 2016-2021 A. Biere, M. Fleury, N. Froleyks
c 
c Version 1.5.2 a5f15211db36c3956764e18194dd5bd63bf3b5e6
c g++ (GCC) 9.3.0 -Wall -Wextra -O3 -DNDEBUG
c Fri Oct 21 01:27:37 EDT 2022 Linux gra-login3 3.10.0-1160.66.1.el7.x86_64 x86_64
c 
c --- [ limit ] --------------------------------------------------------------
c 
c setting conflict limit to 200000 conflicts (due to '200000')
c 
c --- [ parsing input ] ------------------------------------------------------
c 
c reading DIMACS file from '33.cubes6647.adj'
c opening file to read '33.cubes6647.adj'
c found 'p cnf 6160 1595484' header
c parsed 1595484 clauses in 19.28 seconds process time
c closing file '33.cubes6647.adj'
c after reading 1457566838 bytes 1390.0 MB
c 
c --- [ options ] ------------------------------------------------------------
c 
c all options are set to their default value
c 
c --- [ solving ] ------------------------------------------------------------
c 
c time measured in process time since initialization
c 
c  seconds    reductions  redundant   irredundant
c          MB     restarts       trail       variables
c            level   conflicts       glue         remaining
c 
c * 19.28 1382  0 0   0    0    0  0% 0 1595422 2330 38%
c { 20.37 1430  0 0   0    0    0  0% 0 1595422 2330 38%
c i 20.72 1441 1151 0   0    9    6 37% 2 1595422 2297 37%
c i 20.74 1441 1148 0   0   13    9 37% 2 1595422 2281 37%
c i 21.63 1468 629 0   0   54   48 29% 2 1595422 2272 37%
c i 27.52 1515 188 0  50  246  206 27% 18 1595422 2264 37%
c i 27.81 1516 181 0  53  265  222 27% 20 1595422 2263 37%
c i 27.85 1516 180 0  54  267  223 27% 19 1595422 2262 37%
c i 27.85 1516 179 0  54  268  223 27% 19 1595422 2261 37%
c - 32.38 1478 165 1  65  303  242 27% 21 255861 2261 37%
c i 33.21 1419 90 1  72  731  576 29% 20 255861 2260 37%
c i 33.26 1419 90 1  76  749  588 29% 21 255861 2259 37%
c i 33.36 1419 89 1  81  768  606 29% 21 255861 2258 37%
c i 33.43 1420 89 1  85  781  617 29% 22 255861 2249 37%
c i 34.85 1420 82 1 122  988  783 29% 23 255861 2248 36%
c } 35.00 1420 83 1 124 1002  796 29% 23 255861 2248 36%
c [ 35.00 1420  0 1 124 1002  796  0% 0 255861 2248 36%
c O 35.00 1420  3 1 124 1003  797 14% 1 255861 2248 36%
c - 35.90 1471 29 2 124 1152  824 31% 23 255684 2248 36%
c - 36.52 1471 27 3 125 2418 1474 32% 23 255684 2248 36%
c 
c  seconds    reductions  redundant   irredundant
c          MB     restarts       trail       variables
c            level   conflicts       glue         remaining
c 
c ] 36.53 1471 27 3 125 2419 1475 32% 23 255684 2248 36%
c 1 36.53 1471 27 3 125 2419 1475 32% 23 255684 2248 36%
c 
c --- [ writing output ] -----------------------------------------------------
c 
c writing simplified CNF to DIMACS file 'simp/33.cubes6647.adj.simp1'
c * 36.53 1471 27 3 125 2419 1475 32% 23 255684 2248 36%
c opening file to write 'simp/33.cubes6647.adj.simp1'
c writing 'p cnf 6160 255684' header
c closing file 'simp/33.cubes6647.adj.simp1'
c after writing 124566684 bytes 118.8 MB
c wrote 255684 clauses in 0.87 seconds process time
c 
c --- [ writing extension ] --------------------------------------------------
c 
c writing extension stack to 'simp/33.cubes6647.adj.ext1'
c opening file to write 'simp/33.cubes6647.adj.ext1'
c closing file 'simp/33.cubes6647.adj.ext1'
c after writing 11408 bytes 0.0 MB
c wrote 768 witnesses in 0.00 seconds process time
c 
c --- [ result ] -------------------------------------------------------------
c 
s SATISFIABLE
c 
c --- [ run-time profiling ] -------------------------------------------------
c 
c process time taken by individual solving procedures
c (percentage relative to process time for solving)
c 
c        19.28  111.76% parse
c        17.25  100.00% search
c        14.63   84.80% unstable
c         1.53    8.86% stable
c         1.09    6.35% lucky
c         0.00    0.00% simplify
c   =================================
c        17.25   46.12% solve
c 
c last line shows process time for solving
c (percentage relative to total process time)
c 
c --- [ statistics ] ---------------------------------------------------------
c 
c chronological:               564        23.32 %  of conflicts
c conflicts:                  2419       140.24    per second
c decisions:                 16972       983.93    per second
c fixed:                       768        12.47 %  of all variables
c learned:                    2349        97.11 %  per conflict
c learned_lits:             455125       100.00 %  learned literals
c minimized:                     0         0.00 %  learned literals
c shrunken:                 208501        45.81 %  learned literals
c minishrunken:              79963        17.57 %  learned literals
c propagations:             342026         0.02 M  per second
c reduced:                     498        20.59 %  per conflict
c rephased:                      1      2419.00    interval
c restarts:                    125        19.35    interval
c stabilizing:                   1        58.58 %  of conflicts
c subsumed:                    361         0.01 %  of all clauses
c 
c seconds are measured in process time for solving
c 
c --- [ resources ] ----------------------------------------------------------
c 
c total process time since initialization:        37.40    seconds
c total real time since initialization:        29235.69    seconds
c maximum resident set size of process:         1578.12    MB
c 
c --- [ shutting down ] ------------------------------------------------------
c 
c exit 10
WARNING! DIMACS header mismatch: wrong number of variables.
============================[ Problem Statistics ]=============================
|                                                                             |
|  Number of variables:          6120                                         |
|  Number of clauses:          255684                                         |
|  Parse time:                   1.73 s                                       |
|  Simplification time:          0.03 s                                       |
|                                                                             |
============================[ Search Statistics ]====================================================
| Conflicts |          ORIGINAL         |          LEARNT          | Num Sols |      SUBGRAPHS      |
|           |    Vars  Clauses Literals |    Limit  Clauses Lit/Cl |          | Canonical Noncanon. |
=====================================================================================================
|       112 |    6027   255696 26791684 |     2000      111     71 |        0 |        20        12 |
|       371 |    6027   255805 26794049 |     2000      370     40 |        0 |        59       121 |
|       600 |    6027   255809 26794120 |     2000      599     69 |        0 |        66       125 |
|       958 |    6027   255830 26794548 |     2000      957     79 |        0 |        71       146 |
|      1483 |    6025   255849 26794903 |     2000     1480     85 |        0 |        81       165 |
|      2254 |    6023   255861 26795329 |     3599     1253     46 |        0 |       117       177 |
|      3877 |    6022   256345 26803210 |     3599     2875     52 |        0 |       274       661 |
|      5620 |    6010   256380 26804341 |     4999     2818     45 |        0 |       299       696 |
|      9901 |    6009   258099 26835875 |     6300     4600     24 |        0 |      1058      2415 |
|     13790 |    6008   258144 26836867 |     7549     5339     48 |        0 |      1112      2460 |
|     19699 |    6008   258287 26840088 |     8780     7479     44 |        0 |      1176      2603 |
|     38837 |    6008   268776 27021980 |    12399    11636     55 |        0 |      5068     13092 |
|     51972 |    6006   268937 27025914 |    14803    11775     48 |        0 |      5143     13253 |
|     99908 |    6006   297412 27456895 |    20811    16719     39 |        0 |     15395     41728 |
|    147899 |    6004   316211 27762774 |    25616    19515     25 |        0 |     21526     60527 |
|    226025 |    6004   350548 28264463 |    31614    27639     34 |        0 |     33049     94864 |
|    316377 |    6004   338389 24805773 |    37616    32993     38 |        0 |     39535    119532 |
=====================================================================================================
Number of solutions   : 0
Canonical subgraphs   : 42801          (5 /sec)
          order  3    : 1              (200000 /sec)
          order  4    : 1              (500000 /sec)
          order  5    : 1              (250000 /sec)
          order  6    : 1              (52632 /sec)
          order  7    : 1              (8772 /sec)
          order  8    : 2              (1363 /sec)
          order  9    : 6              (315 /sec)
          order 10    : 24             (87 /sec)
          order 11    : 76             (24 /sec)
          order 12    : 282            (10 /sec)
          order 13    : 945            (6 /sec)
          order 14    : 8860           (5 /sec)
          order 15    : 32243          (5 /sec)
          order 16    : 218            (4 /sec)
          order 17    : 103            (3 /sec)
          order 18    : 35             (3 /sec)
          order 19    : 2              (3 /sec)
          order 20    : 0              (-nan /sec)
          order 21    : 0              (-nan /sec)
          order 22    : 0              (-nan /sec)
Noncanonical subgraphs: 130552         (70 /sec)
          order  3    : 0              (-nan /sec)
          order  4    : 0              (-nan /sec)
          order  5    : 0              (-nan /sec)
          order  6    : 0              (-nan /sec)
          order  7    : 0              (-nan /sec)
          order  8    : 0              (-nan /sec)
          order  9    : 0              (-nan /sec)
          order 10    : 0              (-nan /sec)
          order 11    : 0              (-nan /sec)
          order 12    : 0              (-nan /sec)
          order 13    : 2968           (2973 /sec)
          order 14    : 29827          (929 /sec)
          order 15    : 45015          (275 /sec)
          order 16    : 52618          (32 /sec)
          order 17    : 116            (87 /sec)
          order 18    : 6              (19 /sec)
          order 19    : 2              (4 /sec)
          order 20    : 0              (-nan /sec)
          order 21    : 0              (-nan /sec)
Canonicity checking   : 8396.69 s
Noncanonicity checking: 1853.81 s
Total canonicity time : 10250.5 s
database reductions   : 32
restarts              : 891
conflicts             : 367088         (35 /sec)
decisions             : 618304         (0.00 % random) (59 /sec)
propagations          : 39439750       (3792 /sec)
conflict literals     : 24145404       (54.32 % deleted)
actual reward         : 0.099131
Memory used           : 373.00 MB
CPU time              : 10401.6 s

UNSATISFIABLE
